CMD:
./solvers/bin/cadical --plain --no-reduce -t 1600 ./data/cnfs//6s119/6s119.41.cnf

c --- [ banner ] -------------------------------------------------------------
c 
c CaDiCaL SAT Solver
c Copyright (c) 2016-2024
c A. Biere, M. Fleury, N. Froleyks, K. Fazekas, F. Pollitt, T. Faller
c JKU Linz, University of Freiburg, TU Wien
c 
c Version 2.1.3 5296d3d2a9bf48c154ab2acb5e44625776d821bf
c g++ (Gentoo 12.3.1_p20230526 p2) 12.3.1 20230526 -Wall -Wextra -O3 -DNDEBUG
c Sat Aug 9 07:26:21 PDT 2025 Linux cedar2.int.cedar.computecanada.ca 5.14.0-362.24.2.el9_3.x86_64 x86_64
c 
c --- [ limit ] --------------------------------------------------------------
c 
c setting time limit to 1600 seconds real time (due to '-t 1600')
c 
c --- [ parsing input ] ------------------------------------------------------
c 
c reading DIMACS file from './data/cnfs//6s119/6s119.41.cnf'
c opening file to read './data/cnfs//6s119/6s119.41.cnf'
c found 'p cnf 4541141 13512677' header
c parsed 13512677 clauses in 1.76 seconds process time
c 
c --- [ options ] ------------------------------------------------------------
c 
c   --compact=false                (different from default 'true')
c   --decompose=false              (different from default 'true')
c   --deduplicate=false            (different from default 'true')
c   --elim=false                   (different from default 'true')
c   --probe=false                  (different from default 'true')
c   --reduce=false                 (different from default 'true')
c   --subsume=false                (different from default 'true')
c   --ternary=false                (different from default 'true')
c   --transred=false               (different from default 'true')
c   --vivify=false                 (different from default 'true')
c 
c --- [ solving ] ------------------------------------------------------------
c 
c time measured in process time since initialization
c 
c  seconds    reductions  redundant   irredundant
c          MB     restarts       trail         variables
c            level   conflicts       glue            remaining
c 
c *  1.76 1652  0 0   0    0    0  0% 0 8935677 1075700 24%
c {  1.97 1663  0 0   0    0    0  0% 0 8935677 1075700 24%
c i  2.02 1663 255 0   0    5    4 85% 1 8935677 1075576 24%
c i  2.09 1664 242 0   0    9    7 84% 2 8935677 1075269 24%
c i  3.11 1666 133 0   9  141  118 83% 3 8935677 1075226 24%
c i  5.05 1668 122 0  40  805  683 81% 4 8935677 1075221 24%
c i  5.10 1668 122 0  41  806  683 81% 4 8935677 1075216 24%
c i  5.15 1668 122 0  41  807  683 81% 4 8935677 1075211 24%
c i  5.20 1668 122 0  41  808  683 81% 4 8935677 1075205 24%
c i  5.75 1668 116 0  53  865  724 81% 5 8935677 1075096 24%
c i  5.76 1668 116 0  53  866  724 81% 5 8935677 1075088 24%
c i  5.77 1668 116 0  53  867  724 81% 5 8935677 1075083 24%
c }  6.41 1668 103 0  63 1000  847 81% 5 8935677 1075083 24%
c [  6.41 1668  0 0  63 1000  847  0% 0 8935677 1075083 24%
c O  6.61 1668 1604 0  63 1004  851 84% 2 8935677 1075083 24%
c i  7.41 1669 3514 0  63 1610 1453 89% 8 8935677 1075063 24%
c i  7.41 1669 3511 0  63 1615 1457 89% 8 8935677 1075043 24%
c i  7.42 1669 3510 0  63 1618 1459 89% 8 8935677 1075023 24%
c i  7.42 1669 3507 0  63 1623 1463 89% 8 8935677 1075003 24%
c i  7.43 1669 3506 0  63 1625 1464 89% 8 8935677 1074983 24%
c 
c  seconds      reductions  redundant   irredundant
c          MB       restarts       trail         variables
c             level    conflicts       glue            remaining
c 
c i  7.43 1669 3504 0  63 1627 1465 89% 8 8935677 1074963 24%
c i  7.43 1669 3503 0  63 1629 1466 89% 8 8935677 1074943 24%
c i  7.43 1669 3502 0  63 1631 1467 89% 8 8935677 1074923 24%
c i  7.44 1669 3501 0  63 1633 1468 89% 8 8935677 1074903 24%
c i  7.44 1669 3500 0  63 1635 1469 89% 7 8935677 1074883 24%
c i  7.44 1669 3499 0  63 1637 1469 89% 7 8935677 1074843 24%
c i  7.45 1669 3496 0  63 1641 1471 89% 7 8935677 1074803 24%
c i  7.45 1669 3495 0  63 1643 1471 89% 7 8935677 1074763 24%
c i  7.46 1669 3492 0  63 1648 1473 89% 7 8935677 1074723 24%
c i  7.47 1669 3491 0  63 1650 1473 89% 7 8935677 1074683 24%
c i  7.47 1669 3490 0  63 1652 1473 89% 7 8935677 1074643 24%
c i  7.47 1669 3489 0  63 1654 1473 89% 7 8935677 1074603 24%
c i  7.48 1669 3488 0  63 1656 1473 89% 7 8935677 1074563 24%
c i  7.48 1669 3487 0  63 1658 1473 89% 7 8935677 1074523 24%
c i  7.48 1669 3486 0  63 1660 1473 89% 7 8935677 1074483 24%
c i  7.48 1669 3485 0  63 1662 1473 89% 7 8935677 1074443 24%
c i  7.51 1669 3482 0  63 1667 1474 89% 7 8935677 1074403 24%
c i  7.52 1669 3481 0  63 1669 1474 89% 7 8935677 1074363 24%
c i  7.53 1669 3480 0  63 1671 1474 89% 7 8935677 1074323 24%
c i  7.53 1669 3477 0  63 1677 1474 89% 7 8935677 1074203 24%
c 
c  seconds      reductions  redundant   irredundant
c          MB       restarts       trail         variables
c             level    conflicts       glue            remaining
c 
c i  7.53 1669 3476 0  63 1679 1474 89% 7 8935677 1074163 24%
c i  7.54 1669 3474 0  63 1683 1475 89% 7 8935677 1074051 24%
c i  7.54 1669 3473 0  63 1685 1476 89% 7 8935677 1074031 24%
c i  7.54 1669 3472 0  63 1687 1477 89% 7 8935677 1074011 24%
... skipped 113 lines ...
c i 25.09 1671 40 0 326 6976 5676 85% 6 8935677 928123 20%
c i 25.09 1671 40 0 326 6977 5676 85% 6 8935677 928117 20%
c i 25.09 1671 40 0 326 6978 5676 85% 6 8935677 928111 20%
c 
c  seconds    reductions  redundant   irredundant
c          MB     restarts       trail        variables
c            level   conflicts       glue           remaining
c 
c i 25.11 1671 40 0 326 6984 5680 85% 6 8935677 928110 20%
c i 25.12 1671 40 0 326 6991 5686 85% 6 8935677 928109 20%
c } 25.14 1671 40 0 326 7001 5696 86% 6 8935677 928109 20%
c [ 25.14 1671 1260 0 326 7001 5696 88% 13 8935677 928109 20%
c i 25.60 1671 1139 0 327 7215 5870 88% 12 8935677 928103 20%
c i 26.40 1671 955 0 327 7642 6161 88% 12 8935677 928096 20%
c i 26.63 1671 920 0 327 7745 6224 88% 12 8935677 928089 20%
c i 26.67 1671 916 0 327 7755 6228 88% 12 8935677 928081 20%
c I 30.82 1672 507 0 328 10008 7849 88% 11 8935677 928081 20%
c i 31.76 1672 464 0 329 10466 8232 88% 11 8935677 928072 20%
c i 32.70 1672 418 0 329 11053 8483 87% 10 8935677 927987 20%
c i 32.73 1672 418 0 329 11057 8482 87% 10 8935677 927985 20%
c i 34.42 1672 346 0 330 12304 9398 87% 10 8935677 927979 20%
c i 34.45 1672 346 0 330 12319 9409 87% 10 8935677 927972 20%
c i 37.01 1672 281 0 331 13944 10059 87% 9 8935677 801667 18%
c i 37.10 1672 281 0 331 13973 10082 87% 9 8935677 801409 18%
c i 37.13 1672 280 0 331 13990 10091 87% 9 8935677 800644 18%
c i 37.20 1672 279 0 331 14025 10102 87% 9 8935677 798185 18%
c ] 39.01 1673 251 0 331 15004 10470 87% 9 8935677 792852 17%
c { 39.01 1673 40 0 331 15004 10470 86% 6 8935677 792852 17%
c 
c  seconds    reductions    redundant   irredundant
c          MB     restarts         trail        variables
c            level    conflicts        glue           remaining
c 
c B 39.03 1673 40 0 331 15009 10474 86% 6 8935677 792811 17%
c i 39.41 1673 38 0 331 15272 10588 86% 6 8935677 792257 17%
c i 39.59 1673 37 0 332 15428 10689 86% 6 8935677 717677 16%
c i 39.83 1673 36 0 332 15691 10821 86% 6 8935677 702098 15%
c i 39.90 1673 35 0 332 15735 10830 86% 6 8935677 701871 15%
c i 39.96 1673 35 0 332 15771 10841 86% 6 8935677 658319 14%
c i 40.03 1673 35 0 332 15827 10873 86% 6 8935677 637440 14%
c i 40.03 1673 35 0 332 15829 10874 86% 6 8935677 637431 14%
c i 40.03 1673 35 0 332 15830 10874 86% 6 8935677 637371 14%
c i 40.05 1673 35 0 332 15854 10886 86% 6 8935677 635190 14%
c i 40.06 1673 35 0 332 15856 10887 86% 6 8935677 635052 14%
c i 40.06 1673 35 0 332 15858 10887 86% 6 8935677 626254 14%
c i 40.07 1673 35 0 332 15865 10890 86% 6 8935677 617895 14%
c } 40.08 1673 35 0 332 15870 10890 86% 6 8935677 593002 13%
c 0 40.08 1673 35 0 332 15870 10890 86% 6 8935677 593002 13%
c 
c --- [ result ] -------------------------------------------------------------
c 
s UNSATISFIABLE
c 
c --- [ run-time profiling ] -------------------------------------------------
c 
c process time taken by individual solving procedures
c (percentage relative to process time for solving)
c 
c        38.31  100.00% search
c        20.56   53.66% unstable
c        17.55   45.80% stable
c         1.76    4.60% parse
c         0.20    0.53% lucky
c         0.00    0.00% simplify
c   =================================
c        38.31   95.60% solve
c 
c last line shows process time for solving
c (percentage relative to total process time)
c 
c --- [ statistics ] ---------------------------------------------------------
c 
c chronological:              4904        30.90 %  of conflicts
c conflicts:                 15870       414.21    per second
c decisions:                 58460      1525.82    per second
c fixed:                   3948139        86.94 %  of all variables
c learned:                   15365        96.82 %  per conflict
c learned_lits:            1239106       100.00 %  learned literals
c minimized:                     0         0.00 %  learned literals
c shrunken:                 618383        49.91 %  learned literals
c minishrunken:             206206        16.64 %  learned literals
c otfs:                         75         0.47 %  of conflict
c propagations:          394229779        10.29 M  per second
c rephased:                      5      3174.00    interval
c restarts:                    332        47.80    interval
c stabilizing:                   2        62.94 %  of conflicts
c subsumed:                   4301         0.05 %  of all clauses
c strengthened:                 58         0.00 %  of all clauses
c 
c seconds are measured in process time for solving
c 
c --- [ resources ] ----------------------------------------------------------
c 
c total process time since initialization:        40.08    seconds
c total real time since initialization:           40.25    seconds
c maximum resident set size of process:         1670.95    MB
c 
c --- [ shutting down ] ------------------------------------------------------
c 
c exit 20
